
******************************************************************************
This program contains Ipopt, a library for large-scale nonlinear optimization.
 Ipopt is released as open source code under the Eclipse Public License (EPL).
         For more information visit http://projects.coin-or.org/Ipopt
******************************************************************************

This is Ipopt version 3.12.6, running with linear solver ma57.

Number of nonzeros in equality constraint Jacobian...:      194
Number of nonzeros in inequality constraint Jacobian.:        0
Number of nonzeros in Lagrangian Hessian.............:       87

Total number of variables............................:       29
                     variables with only lower bounds:        0
                variables with lower and upper bounds:        0
                     variables with only upper bounds:        0
Total number of equality constraints.................:       29
Total number of inequality constraints...............:        0
        inequality constraints with only lower bounds:        0
   inequality constraints with lower and upper bounds:        0
        inequality constraints with only upper bounds:        0

iter    objective    inf_pr   inf_du lg(mu)  ||d||  lg(rg) alpha_du alpha_pr  ls
   0  0.0000000e+00 2.12e+01 0.00e+00  -1.0 0.00e+00    -  0.00e+00 0.00e+00   0
Reallocating memory for MA57: lfact (2825)
Reallocating memory for MA57: lfact (3055)
   1  0.0000000e+00 5.13e+00 0.00e+00  -1.0 7.32e+01    -  1.00e+00 5.00e-01h  2
   2  0.0000000e+00 6.70e-01 0.00e+00  -1.0 5.86e+01    -  1.00e+00 1.00e+00h  1
   3  0.0000000e+00 2.83e-02 0.00e+00  -1.7 1.07e+01    -  1.00e+00 1.00e+00h  1
   4  0.0000000e+00 1.45e-05 0.00e+00  -2.5 1.82e-01    -  1.00e+00 1.00e+00h  1
   5  0.0000000e+00 3.93e-12 0.00e+00  -8.6 1.40e-04    -  1.00e+00 1.00e+00h  1

Number of Iterations....: 5

                                   (scaled)                 (unscaled)
Objective...............:   0.0000000000000000e+00    0.0000000000000000e+00
Dual infeasibility......:   0.0000000000000000e+00    0.0000000000000000e+00
Constraint violation....:   3.9266888052225116e-12    3.9266888052225116e-12
Complementarity.........:   0.0000000000000000e+00    0.0000000000000000e+00
Overall NLP error.......:   3.9266888052225116e-12    3.9266888052225116e-12


Number of objective function evaluations             = 9
Number of objective gradient evaluations             = 6
Number of equality constraint evaluations            = 9
Number of inequality constraint evaluations          = 0
Number of equality constraint Jacobian evaluations   = 6
Number of inequality constraint Jacobian evaluations = 0
Number of Lagrangian Hessian evaluations             = 5
Total CPU secs in IPOPT (w/o function evaluations)   =      0.000
Total CPU secs in NLP function evaluations           =      0.000

EXIT: Optimal Solution Found.

************************ CUTEst statistics ************************


 Package used            :  IPOPT
 Problem                 :  HYDCAR6   
 # variables             =              29
 # constraints           =              29
 # objective functions   =        0.1600000E+02
 # objective gradients   =        0.7000000E+01
 # objective Hessians    =        0.6000000E+01
 # Hessian-vector prdct  =        0.0000000E+00
 # constraints functions =        0.1700000E+02
 # constraints gradients =        0.8000000E+01
 # constraints Hessians  =        0.6000000E+01
 Exit code               =               0
 Final f                 =   0.0000000E+00
 Set up time             =            0.00 seconds
 Solve time              =            0.02 seconds


******************************************************************

System Time =       0.0040000002 s.
